NAME: random50
COMMENT: Instancia aleatoria com 50 cidades (max_coord=10000)
TYPE: TSP
DIMENSION: 50
EDGE_WEIGHT_TYPE: EUC_2D
NODE_COORD_SECTION
1 1824 409
2 4506 4012
3 3657 2286
4 1679 8935
5 1424 9674
6 6912 520
7 488 1535
8 3582 3811
9 8279 9863
10 434 9195
11 3257 8928
12 6873 3611
13 7359 9654
14 4557 106
15 2615 6924
16 5574 4552
17 2547 3527
18 5514 1674
19 1519 6224
20 1584 5881
21 5635 9891
22 4333 711
23 7527 8785
24 2045 6201
25 1291 9044
26 4803 5925
27 9459 3150
28 1139 750
29 3733 4741
30 1307 3814
31 1654 6227
32 4554 7428
33 5977 2664
34 6065 5820
35 3432 4374
36 1169 9980
37 2803 8751
38 4010 2677
39 7573 6216
40 4422 9125
41 3598 5313
42 916 3752
43 525 5168
44 6572 4386
45 1084 3456
46 9292 5155
47 3483 8179
48 6482 7517
49 2340 4339
50 2287 4040
EOF
